(set-logic QF_S)
(declare-fun var0 () String)
(declare-fun var1 () String)
(declare-fun var2 () Int)
(declare-fun var3 () String)
(declare-fun var4 () String)
(declare-fun var5 () Int)
(declare-fun var6 () Int)
(assert (>= (str.indexof var0 var1 var2) (str.to.int ".3G%Z^")))
(assert (str.suffixof var3 var4))
(assert (< (str.len var1) (str.len var0)))
(assert (str.contains (str.replace var4 "S`eO_tiq56" var4) (str.substr "`!6c]~" var5 var6)))
(check-sat)